data/mip_solutions/furman_sahinidis/reduced_transportation/6sp-gg1_cplex.sol
Elapsed time: 0.0151460170746
Nodes explored: 0
Upper bound: 3.0
Lower bound: 3.0
y[0,2]=1
y[1,1]=1
y[2,0]=1
q[0,1,2,1]=1000.0
q[1,2,1,2]=1000.0
q[2,3,0,3]=1000.0
