data/mip_solutions/furman_sahinidis/reduced_transportation/6sp-gg1_cplex.log

Log started (V12.6.3.0) Thu Jan 25 20:43:03 2018

New value for default parallel thread count: 1

Problem '/tmp/tmpnoPDfz.pyomo.lp' read.
Read time = 0.00 sec. (0.01 ticks)

Problem name         : /tmp/tmpnoPDfz.pyomo.lp
Objective sense      : Minimize
Variables            :     146  [Nneg: 136,  Binary: 9,  General Integer: 1]
Objective nonzeros   :       1
Linear constraints   :      41  [Less: 9,  Equal: 32]
  Nonzeros           :     419
  RHS nonzeros       :       7

Variables            : Min LB: 0.000000         Max UB: 1.000000       
Objective nonzeros   : Min   : 1.000000         Max   : 1.000000       
Linear constraints   :
  Nonzeros           : Min   : 1.000000         Max   : 1000.000       
  RHS nonzeros       : Min   : 1.000000         Max   : 1000.000       
Tried aggregator 2 times.
MIP Presolve eliminated 41 rows and 146 columns.
MIP Presolve added 1 rows and 1 columns.
Aggregator did 1 substitutions.
All rows and columns eliminated.
Presolve time = 0.00 sec. (0.08 ticks)

Root node processing (before b&c):
  Real time             =    0.00 sec. (0.10 ticks)
Sequential b&c:
  Real time             =    0.00 sec. (0.00 ticks)
                          ------------
Total (root+branch&cut) =    0.00 sec. (0.10 ticks)

Solution pool: 1 solution saved.

MIP - Integer optimal solution:  Objective =  3.0000000000e+00
Solution time =    0.00 sec.  Iterations = 0  Nodes = 0
Deterministic time = 0.10 ticks  (104.25 ticks/sec)


Incumbent solution written to file '/tmp/tmphmz9TK.cplex.sol'.
